floor(1).
floor(2).
floor(3).
floor(4).
floor(5).
time(0).
time(1).
time(2).
time(3).
time(4).
time(5).
time(6).
time(7).
time(8).
time(9).
time(10).
time(11).
time(12).
time(13).
time(14).
time(15).
at(3,0).
called(5,0).
called(1,0).
called(1,1).
called(5,1).
called(5,2).
called(1,2).
down(0).
at(2,1).
down(1).
at(1,2).
at(1,3).
up(3).
at(2,4).
at(2,5).
at(2,6).
up(6).
at(3,7).
up(7).
at(4,8).
at(4,9).
at(4,10).
at(4,11).
at(4,12).
at(4,13).
up(13).
at(5,14).
at(5,15).
at(5,16).
serve(2).
served(1,2).
serve(14).
served(5,14).
called(5,3).
called(5,4).
called(5,5).
called(5,6).
called(5,7).
called(5,8).
called(5,9).
called(5,10).
called(5,11).
called(5,12).
called(5,13).
called(5,14).
ready(2).
ready(14).
wait(4).
wait(5).
wait(8).
wait(9).
wait(10).
wait(11).
wait(12).