#const dim=3.

% @removable
initial(5,1,8).
% @removable
initial(6,2,7).
% @removable
initial(7,1,4).
% @removable
initial(8,2,2).
% @removable
initial(8,1,6).
% @removable
initial(9,2,9).
% @removable
initial(3,3,9).
% @removable
initial(4,3,3).
% @removable
initial(6,3,6).
% @removable
initial(7,3,5).
% @removable
initial(8,3,7).
% @removable
initial(1,4,7).
% @removable
initial(2,4,6).
% @removable
initial(4,4,4).
% @removable
initial(7,4,9).
% @removable
initial(8,4,3).
% @removable
initial(2,5,3).
% @removable
initial(3,5,2).
% @removable
initial(4,5,8).
% @removable
initial(7,5,7).
% @removable
initial(9,5,5).
% @removable
initial(1,6,9).
% @removable
initial(2,6,1).
% @removable
initial(3,6,8).
% @removable
initial(8,6,4).
% @removable
initial(9,6,6).
% @removable
initial(1,7,6).
% @removable
initial(5,7,7).
% @removable
initial(6,7,8).
